Data path: /scratch/opt/lxu/CFLG/benchmarks/tree_A
Instance: treeA.600.30
Result path: /scratch/opt/lxu/CFLG/results/tree_A
Solver: Gurobi
Time limit: 7200
Formulation: LEFPA
Cover: Large
julia --project=. src/main.jl /scratch/opt/lxu/CFLG/benchmarks/tree_A treeA.600.30 /scratch/opt/lxu/CFLG/results/tree_A Gurobi 7200 LEFPA Large
The latest version of Julia in the `release` channel is 1.11.5+0.x64.linux.gnu. You currently have `1.11.4+0.x64.linux.gnu` installed. Run:

  juliaup update

in your terminal shell to install Julia 1.11.5+0.x64.linux.gnu and update the `release` channel to that version.
/scratch/opt/lxu/CFLG/benchmarks/tree_A Gurobi 7200.0 /scratch/opt/lxu/CFLG/results/tree_A treeA.600.30 LEFPA Large
/scratch/opt/lxu/CFLG/benchmarks/tree_A/treeA.600.30

 read graph
data loaded

problem_graph/original graph: node: 600/600 edge: 629/629 dlt: 2.9938320086291417 break_avg_len: 1.4969160043145708 break_max_len: 1.9903424158885938Vbar/V, Ebar/E(233, 600, 262, 629)
Set parameter TokenServer to value "solice01.zib.de"
Set parameter Threads to value 1
Set parameter OutputFlag to value 1
Gurobi Optimizer version 12.0.1 build v12.0.1rc0 (linux64 - "Debian GNU/Linux 12 (bookworm)")

CPU model: Intel(R) Xeon(R) Gold 5122 CPU @ 3.60GHz, instruction set [SSE2|AVX|AVX2|AVX512]
Thread count: 8 physical cores, 16 logical processors, using up to 1 threads

Non-default parameters:
Threads  1

Optimize a model with 691 rows, 1080 columns and 1800 nonzeros
Model fingerprint: 0x11747c36
Coefficient statistics:
  Matrix range     [1e+00, 1e+00]
  Objective range  [1e+00, 1e+00]
  Bounds range     [1e+00, 1e+00]
  RHS range        [1e+00, 1e+00]
Presolve removed 691 rows and 1080 columns
Presolve time: 0.00s
Presolve: All rows and columns removed
Iteration    Objective       Primal Inf.    Dual Inf.      Time
       0    9.8000000e+01   0.000000e+00   0.000000e+00      0s

Solved in 0 iterations and 0.00 seconds (0.00 work units)
Optimal objective  9.800000000e+01

User-callback calls 35, time in user-callback 0.01 sec
elapsed CPU time: 1.57307 seconds
Set parameter TokenServer to value "solice01.zib.de"
Set parameter Threads to value 1
Set parameter OutputFlag to value 1
Set parameter MIPGap to value 0.0001
Set parameter MIPGapAbs to value 0.999998
Set parameter TimeLimit to value 7198.42693

 more cuts: false 2.9938320086291417 false
is_attach:trueformulation:LEFPA0 360 0

 model loaded

Gurobi Optimizer version 12.0.1 build v12.0.1rc0 (linux64 - "Debian GNU/Linux 12 (bookworm)")

CPU model: Intel(R) Xeon(R) Gold 5122 CPU @ 3.60GHz, instruction set [SSE2|AVX|AVX2|AVX512]
Thread count: 8 physical cores, 16 logical processors, using up to 1 threads

Non-default parameters:
TimeLimit  7198.42693
MIPGapAbs  0.999998
Threads  1

Optimize a model with 9258 rows, 5643 columns and 25211 nonzeros
Model fingerprint: 0x7deb1245
Variable types: 1051 continuous, 4592 integer (4592 binary)
Coefficient statistics:
  Matrix range     [1e-06, 6e+00]
  Objective range  [1e+00, 1e+00]
  Bounds range     [3e-02, 3e+00]
  RHS range        [1e-06, 6e+00]
Presolve removed 5168 rows and 2990 columns
Presolve time: 0.17s
Presolved: 4090 rows, 2653 columns, 17325 nonzeros
Variable types: 491 continuous, 2162 integer (2162 binary)
Found heuristic solution: objective 329.0000000
Found heuristic solution: objective 319.0000000
Found heuristic solution: objective 232.0000000

Root relaxation: objective 1.164000e+02, 2746 iterations, 0.04 seconds (0.04 work units)

    Nodes    |    Current Node    |     Objective Bounds      |     Work
 Expl Unexpl |  Obj  Depth IntInf | Incumbent    BestBd   Gap | It/Node Time

     0     0  116.40003    0  752  232.00000  116.40003  49.8%     -    0s
H    0     0                     228.0000000  116.40003  48.9%     -    0s
H    0     0                     185.0000000  116.40003  37.1%     -    0s
H    0     0                     172.0000000  116.40003  32.3%     -    0s
H    0     0                     171.0000000  116.40003  31.9%     -    0s
     0     0  125.60199    0  822  171.00000  125.60199  26.5%     -    0s
     0     0  126.15592    0  830  171.00000  126.15592  26.2%     -    0s
     0     0  126.17667    0  832  171.00000  126.17667  26.2%     -    0s
     0     0  126.17674    0  831  171.00000  126.17674  26.2%     -    0s
     0     0  130.26256    0  819  171.00000  130.26256  23.8%     -    0s
H    0     0                     170.0000000  130.31757  23.3%     -    0s
H    0     0                     169.0000000  130.31757  22.9%     -    0s
     0     0  130.88302    0  820  169.00000  130.88302  22.6%     -    0s
     0     0  130.88302    0  831  169.00000  130.88302  22.6%     -    0s
     0     0  132.65851    0  753  169.00000  132.65851  21.5%     -    0s
     0     0  133.47933    0  755  169.00000  133.47933  21.0%     -    0s
     0     0  133.48676    0  763  169.00000  133.48676  21.0%     -    0s
     0     0  133.48693    0  766  169.00000  133.48693  21.0%     -    0s
     0     0  134.29968    0  718  169.00000  134.29968  20.5%     -    0s
     0     0  134.54968    0  744  169.00000  134.54968  20.4%     -    0s
     0     0  134.54968    0  795  169.00000  134.54968  20.4%     -    1s
     0     0  134.54968    0  795  169.00000  134.54968  20.4%     -    1s
     0     0  134.54968    0  784  169.00000  134.54968  20.4%     -    1s
     0     0  134.60399    0  758  169.00000  134.60399  20.4%     -    1s
H    0     0                     163.0000000  134.60399  17.4%     -    1s
     0     0  134.60399    0  724  163.00000  134.60399  17.4%     -    1s
     0     0  134.73056    0  725  163.00000  134.73056  17.3%     -    1s
     0     0  134.73342    0  734  163.00000  134.73342  17.3%     -    1s
     0     0  134.77261    0  711  163.00000  134.77261  17.3%     -    1s
     0     0  134.77435    0  723  163.00000  134.77435  17.3%     -    1s
     0     0  134.77779    0  717  163.00000  134.77779  17.3%     -    1s
     0     0  134.77779    0  444  163.00000  134.77779  17.3%     -    1s
H    0     0                     162.0000000  134.77779  16.8%     -    1s
H    0     0                     161.0000000  134.77779  16.3%     -    1s
H    0     0                     155.0000000  134.77779  13.0%     -    1s
H    0     0                     154.0000000  134.77779  12.5%     -    1s
H    0     0                     153.0000000  134.77779  11.9%     -    1s
     0     2  134.86112    0  380  153.00000  134.86112  11.9%     -    1s
H   26    24                     149.0000000  134.86112  9.49%  72.4    1s
H   26    24                     148.0000000  134.86112  8.88%  72.4    1s
H   52    48                     147.0000000  134.86112  8.26%  51.8    1s
H  130   102                     146.0000000  134.86649  7.63%  37.4    2s
H  183   142                     145.0000000  134.86649  6.99%  32.4    2s
H  300   209                     144.0000000  135.00835  6.24%  28.2    2s
   579   441  141.07783   50  113  144.00000  140.16535  2.66%  24.3    5s
   648   488  141.82967   11  158  144.00000  141.82967  1.51%   133   10s
*  918   405              58     143.0000000  143.00000  0.00%   134   13s

Cutting planes:
  Learned: 3
  Gomory: 20
  Cover: 53
  Implied bound: 11
  Clique: 4
  MIR: 18
  StrongCG: 4
  Flow cover: 59
  GUB cover: 36
  Zero half: 42
  RLT: 26
  Relax-and-lift: 7
  BQP: 11

Explored 919 nodes (137200 simplex iterations) in 13.65 seconds (8.28 work units)
Thread count was 1 (of 16 available processors)

Solution count 10: 143 144 144 ... 149

Optimal solution found (tolerance 1.00e-04)
Best objective 1.430000000000e+02, best bound 1.430000000000e+02, gap 0.0000%

User-callback calls 8608, time in user-callback 0.01 sec

 sepatime0 0 0
143.0Stat(MathOptInterface.OPTIMAL, 143.0, 143.0, 0.0, 0.0, 1.57307, 13.645701169967651, 919, Main.CFLG.LEFPA, "", #undef)
ERROR: LoadError: SystemError: opening file "/scratch/opt/lxu/CFLG/results/tree_A/treeA.600.30.LEFPA.Large": No such file or directory
Stacktrace:
 [1] systemerror(p::String, errno::Int32; extrainfo::Nothing)
   @ Base ./error.jl:176
 [2] systemerror
   @ ./error.jl:175 [inlined]
 [3] open(fname::String; lock::Bool, read::Nothing, write::Nothing, create::Nothing, truncate::Bool, append::Nothing)
   @ Base ./iostream.jl:295
 [4] open
   @ ./iostream.jl:277 [inlined]
 [5] open(fname::String, mode::String; lock::Bool)
   @ Base ./iostream.jl:358
 [6] open
   @ ./iostream.jl:357 [inlined]
 [7] main(args::Vector{String})
   @ Main /scratch/opt/lxu/CFLG/src/main.jl:51
 [8] top-level scope
   @ /scratch/opt/lxu/CFLG/src/main.jl:57
in expression starting at /scratch/opt/lxu/CFLG/src/main.jl:57
srun: error: htc-cmp433: task 0: Exited with exit code 1
